letting maxWeight = 50
letting values =  [15, 100, 90, 60, 40, 15, 10,  1, 12, 12, 100,15, 100, 90, 60, 40, 15, 10,  1, 12, 12, 100,15, 100, 90, 60, 40, 15, 10,  1, 12, 12, 100,15, 100, 90, 60, 40, 15, 10,  1, 12, 12, 100,15, 100, 90, 60, 40, 15, 10,  1, 12, 12, 100,15, 100, 90, 60, 40, 15, 10,  1, 12, 12, 100,15, 100, 90, 60, 40, 15, 10,  1, 12, 12, 100,15, 100, 90, 60, 40, 15, 10,  1, 12, 12, 100,]
letting weights = [ 2,  20, 20, 30, 40, 30, 60, 10, 21, 12,   2, 2,  20, 20, 30, 40, 30, 60, 10, 21, 12,   2,2,  20, 20, 30, 40, 30, 60, 10, 21, 12,   2, 2,  20, 20, 30, 40, 30, 60, 10, 21, 12,   2,2,  20, 20, 30, 40, 30, 60, 10, 21, 12,   2, 2,  20, 20, 30, 40, 30, 60, 10, 21, 12,   2,2,  20, 20, 30, 40, 30, 60, 10, 21, 12,   2, 2,  20, 20, 30, 40, 30, 60, 10, 21, 12,   2,]
